Cost: 700
0-16-51-17-0
0-4-34-46-0
0-31-10-26-0
0-2-33-6-0
0-5-47-21-0
0-8-19-35-7-0
0-23-43-42-22-1-0
0-40-12-0
0-37-20-15-13-0
0-44-32-39-0
0-3-24-18-25-0
0-30-29-45-0
Cost: 700
0-21-47-5-0
0-3-24-18-25-0
0-2-6-0
0-51-16-33-0
0-1-22-42-43-23-0
0-46-34-4-0
0-40-12-26-0
0-10-31-17-0
0-7-35-19-8-0
0-44-32-39-0
0-30-29-45-0
0-13-15-20-37-0
Cost: 700
0-16-51-17-0
0-4-34-46-0
0-31-10-26-0
0-2-33-6-0
0-5-47-21-0
0-8-19-35-7-0
0-23-43-42-22-1-0
0-40-12-0
0-37-20-15-13-0
0-44-32-39-0
0-3-24-18-25-0
0-30-29-45-0
Cost: 700
0-16-51-17-0
0-4-34-46-0
0-31-10-26-0
0-2-33-6-0
0-5-47-21-0
0-8-19-35-7-0
0-23-43-42-22-1-0
0-40-12-0
0-37-20-15-13-0
0-44-32-39-0
0-3-24-18-25-0
0-30-29-45-0
Cost: 700
0-16-51-17-0
0-4-34-46-0
0-31-10-26-0
0-2-33-6-0
0-5-47-21-0
0-8-19-35-7-0
0-23-43-42-22-1-0
0-40-12-0
0-37-20-15-13-0
0-44-32-39-0
0-3-24-18-25-0
0-30-29-45-0
Cost: 700
0-16-51-17-0
0-4-34-46-0
0-31-10-26-0
0-2-33-6-0
0-5-47-21-0
0-8-19-35-7-0
0-23-43-42-22-1-0
0-40-12-0
0-37-20-15-13-0
0-44-32-39-0
0-3-24-18-25-0
0-30-29-45-0
Cost: 700
0-16-51-17-0
0-4-34-46-0
0-31-10-26-0
0-2-33-6-0
0-5-47-21-0
0-8-19-35-7-0
0-23-43-42-22-1-0
0-40-12-0
0-37-20-15-13-0
0-44-32-39-0
0-3-24-18-25-0
0-30-29-45-0
Cost: 700
0-16-51-17-0
0-4-34-46-0
0-31-10-26-0
0-2-33-6-0
0-5-47-21-0
0-8-19-35-7-0
0-23-43-42-22-1-0
0-40-12-0
0-37-20-15-13-0
0-44-32-39-0
0-3-24-18-25-0
0-30-29-45-0
Cost: 700
0-16-51-17-0
0-4-34-46-0
0-31-10-26-0
0-2-33-6-0
0-5-47-21-0
0-8-19-35-7-0
0-23-43-42-22-1-0
0-40-12-0
0-37-20-15-13-0
0-44-32-39-0
0-3-24-18-25-0
0-30-29-45-0
Cost: 700
0-16-51-17-0
0-4-34-46-0
0-31-10-26-0
0-2-33-6-0
0-5-47-21-0
0-8-19-35-7-0
0-23-43-42-22-1-0
0-40-12-0
0-37-20-15-13-0
0-44-32-39-0
0-3-24-18-25-0
0-30-29-45-0
Cost: 700
0-16-51-17-0
0-4-34-46-0
0-31-10-26-0
0-2-33-6-0
0-5-47-21-0
0-8-19-35-7-0
0-23-43-42-22-1-0
0-40-12-0
0-37-20-15-13-0
0-44-32-39-0
0-3-24-18-25-0
0-30-29-45-0
Cost: 700
0-16-51-17-0
0-4-34-46-0
0-31-10-26-0
0-2-33-6-0
0-5-47-21-0
0-8-19-35-7-0
0-23-43-42-22-1-0
0-40-12-0
0-37-20-15-13-0
0-44-32-39-0
0-3-24-18-25-0
0-30-29-45-0
Cost: 700
0-16-51-17-0
0-4-34-46-0
0-31-10-26-0
0-2-33-6-0
0-5-47-21-0
0-8-19-35-7-0
0-23-43-42-22-1-0
0-40-12-0
0-37-20-15-13-0
0-44-32-39-0
0-3-24-18-25-0
0-30-29-45-0
Cost: 700
0-16-51-17-0
0-4-34-46-0
0-31-10-26-0
0-2-33-6-0
0-5-47-21-0
0-8-19-35-7-0
0-23-43-42-22-1-0
0-40-12-0
0-37-20-15-13-0
0-44-32-39-0
0-3-24-18-25-0
0-30-29-45-0
Cost: 700
0-16-51-17-0
0-4-34-46-0
0-31-10-26-0
0-2-33-6-0
0-5-47-21-0
0-8-19-35-7-0
0-23-43-42-22-1-0
0-40-12-0
0-37-20-15-13-0
0-44-32-39-0
0-3-24-18-25-0
0-30-29-45-0
Cost: 700
0-16-51-17-0
0-4-34-46-0
0-31-10-26-0
0-2-33-6-0
0-5-47-21-0
0-8-19-35-7-0
0-23-43-42-22-1-0
0-40-12-0
0-37-20-15-13-0
0-44-32-39-0
0-3-24-18-25-0
0-30-29-45-0
Cost: 700
0-16-51-17-0
0-4-34-46-0
0-31-10-26-0
0-2-33-6-0
0-5-47-21-0
0-8-19-35-7-0
0-23-43-42-22-1-0
0-40-12-0
0-37-20-15-13-0
0-44-32-39-0
0-3-24-18-25-0
0-30-29-45-0
Cost: 700
0-16-51-17-0
0-4-34-46-0
0-31-10-26-0
0-2-33-6-0
0-5-47-21-0
0-8-19-35-7-0
0-23-43-42-22-1-0
0-40-12-0
0-37-20-15-13-0
0-44-32-39-0
0-3-24-18-25-0
0-30-29-45-0
Cost: 700
0-16-51-17-0
0-4-34-46-0
0-31-10-26-0
0-2-33-6-0
0-5-47-21-0
0-8-19-35-7-0
0-23-43-42-22-1-0
0-40-12-0
0-37-20-15-13-0
0-44-32-39-0
0-3-24-18-25-0
0-30-29-45-0
Cost: 700
0-16-51-17-0
0-4-34-46-0
0-31-10-26-0
0-2-33-6-0
0-5-47-21-0
0-8-19-35-7-0
0-23-43-42-22-1-0
0-40-12-0
0-37-20-15-13-0
0-44-32-39-0
0-3-24-18-25-0
0-30-29-45-0
Cost: 700
0-16-51-17-0
0-4-34-46-0
0-31-10-26-0
0-2-33-6-0
0-5-47-21-0
0-8-19-35-7-0
0-23-43-42-22-1-0
0-40-12-0
0-37-20-15-13-0
0-44-32-39-0
0-3-24-18-25-0
0-30-29-45-0
Cost: 700
0-16-51-17-0
0-4-34-46-0
0-31-10-26-0
0-2-33-6-0
0-5-47-21-0
0-8-19-35-7-0
0-23-43-42-22-1-0
0-40-12-0
0-37-20-15-13-0
0-44-32-39-0
0-3-24-18-25-0
0-30-29-45-0
Cost: 700
0-39-32-44-0
0-33-16-51-0
0-26-12-40-0
0-8-19-35-7-0
0-25-18-24-3-0
0-37-20-15-13-0
0-10-31-17-0
0-6-2-0
0-1-22-42-43-23-0
0-45-29-30-0
0-46-34-4-0
0-21-47-5-0
Cost: 700
0-16-51-17-0
0-4-34-46-0
0-31-10-26-0
0-2-33-6-0
0-5-47-21-0
0-8-19-35-7-0
0-23-43-42-22-1-0
0-40-12-0
0-37-20-15-13-0
0-44-32-39-0
0-3-24-18-25-0
0-30-29-45-0
Cost: 700
0-16-51-17-0
0-4-34-46-0
0-31-10-26-0
0-2-33-6-0
0-5-47-21-0
0-8-19-35-7-0
0-23-43-42-22-1-0
0-40-12-0
0-37-20-15-13-0
0-44-32-39-0
0-3-24-18-25-0
0-30-29-45-0
Cost: 700
0-16-51-17-0
0-4-34-46-0
0-31-10-26-0
0-2-33-6-0
0-5-47-21-0
0-8-19-35-7-0
0-23-43-42-22-1-0
0-40-12-0
0-37-20-15-13-0
0-44-32-39-0
0-3-24-18-25-0
0-30-29-45-0
Cost: 700
0-31-10-26-0
0-7-35-19-8-0
0-46-34-4-0
0-44-32-39-0
0-21-47-5-0
0-12-40-0
0-3-24-18-25-0
0-37-20-15-13-0
0-51-16-17-0
0-2-33-6-0
0-23-43-42-22-1-0
0-45-29-30-0
Cost: 703
0-4-34-46-0
0-17-16-51-0
0-10-31-0
0-44-32-39-0
0-6-33-2-0
0-13-15-20-37-0
0-45-29-30-0
0-8-19-35-7-0
0-25-18-24-3-0
0-26-12-40-0
0-21-47-5-0
0-23-41-43-1-22-0
Cost: 700
0-7-35-19-8-0
0-1-22-42-43-23-0
0-51-16-17-0
0-4-34-46-0
0-12-40-0
0-30-29-45-0
0-6-33-2-0
0-26-10-31-0
0-25-18-24-3-0
0-5-47-21-0
0-37-20-15-13-0
0-44-32-39-0
Cost: 700
0-7-35-19-8-0
0-40-12-26-0
0-45-29-30-0
0-3-24-18-25-0
0-44-32-39-0
0-23-41-42-22-1-0
0-6-2-0
0-5-47-21-0
0-33-16-51-0
0-46-34-4-0
0-10-31-17-0
0-37-20-15-13-0
Cost: 700
0-44-32-39-0
0-33-16-51-0
0-21-47-5-0
0-2-6-0
0-13-15-20-37-0
0-10-31-17-0
0-46-34-4-0
0-7-35-19-8-0
0-3-24-18-25-0
0-40-12-26-0
0-23-43-42-22-1-0
0-30-29-45-0
